n_nodes = 720;
M = 6701;
n_domains = 18;
domain_link_weights = [|0,6701,6701,358,6701,6701,6701,6701,6701,6701,6701,6701,6701,6701,6701,6701,6701,6701|6701,0,6701,6701,6701,479,344,264,6701,6701,6701,6701,6701,6701,6701,6701,6701,6701|6701,6701,0,6701,6701,6701,6701,6701,6701,972,6701,6701,6701,6701,1788,6701,6701,6701|6701,6701,6701,0,6701,6701,6701,6701,6701,6701,6701,6701,6701,6701,6701,6701,6701,6701|6701,6701,6701,6701,0,364,358,173,6701,6701,6701,6701,6701,6701,6701,6701,6701,6223|6701,6701,6701,6701,6701,0,6701,6701,6701,6701,6701,6701,6701,6701,6701,6701,6701,6701|6701,6701,6701,6701,6701,6701,0,6701,5585,6701,6701,6701,6701,6701,6701,6701,6701,6701|6701,6701,6701,6701,6701,6701,6701,0,6701,6701,6701,6701,6701,6701,6701,6701,6701,6701|6701,6701,6701,6701,6701,6701,6701,6701,0,6701,6701,6701,6701,6701,6701,1148,556,350|6701,6701,6701,6701,6701,6701,6701,6701,6701,0,6701,6701,6701,2562,6701,943,6701,852|6701,6701,6701,6701,6701,6701,6701,6701,6701,6701,0,1141,6701,6701,6701,2795,6701,6701|6701,6701,6701,6701,6701,6701,6701,6701,6701,6701,6701,0,492,6701,6701,2963,6701,3855|6701,6701,6701,6701,6701,6701,6701,6701,6701,6701,6701,6701,0,575,1995,2807,6701,6701|6701,6701,6701,6701,6701,6701,6701,6701,6701,6701,6701,6701,6701,0,1425,6701,6701,6701|6701,6701,6701,6701,6701,6701,6701,6701,6701,6701,6701,6701,6701,6701,0,1291,6701,1872|6701,6701,6701,6701,6701,6701,6701,6701,6701,6701,6701,6701,6701,6701,6701,0,704,916|6701,6701,6701,6701,6701,6701,6701,6701,6701,6701,6701,6701,6701,6701,6701,6701,0,6701|6701,6701,6701,6701,6701,6701,6701,6701,6701,6701,6701,6701,6701,6701,6701,6701,6701,0|];
num_node_links = 1435;
node_links = [|1,3|1,4|2,6|2,7|2,8|3,10|3,15|5,6|5,7|5,8|5,18|7,9|9,16|9,17|9,18|10,14|10,16|10,18|11,12|11,16|12,13|12,16|12,18|13,14|13,15|13,16|14,15|15,16|15,18|16,17|16,18|1,19|19,1|1,52|52,1|1,54|54,1|1,68|68,1|1,81|81,1|1,92|92,1|1,118|118,1|1,151|151,1|1,159|159,1|1,171|171,1|1,189|189,1|1,242|242,1|1,247|247,1|1,279|279,1|1,322|322,1|1,353|353,1|1,374|374,1|1,394|394,1|1,401|401,1|1,409|409,1|1,415|415,1|1,438|438,1|1,454|454,1|1,459|459,1|1,483|483,1|1,494|494,1|1,542|542,1|1,544|544,1|1,545|545,1|1,551|551,1|1,564|564,1|1,571|571,1|1,572|572,1|1,577|577,1|1,594|594,1|1,603|603,1|1,607|607,1|1,640|640,1|1,698|698,1|2,20|20,2|2,38|38,2|2,59|59,2|2,97|97,2|2,103|103,2|2,109|109,2|2,132|132,2|2,136|136,2|2,148|148,2|2,156|156,2|2,166|166,2|2,175|175,2|2,205|205,2|2,212|212,2|2,236|236,2|2,261|261,2|2,265|265,2|2,294|294,2|2,295|295,2|2,310|310,2|2,326|326,2|2,331|331,2|2,335|335,2|2,349|349,2|2,354|354,2|2,402|402,2|2,463|463,2|2,480|480,2|2,503|503,2|2,511|511,2|2,518|518,2|2,543|543,2|2,570|570,2|2,578|578,2|2,581|581,2|2,597|597,2|2,622|622,2|2,662|662,2|2,699|699,2|3,21|21,3|3,56|56,3|3,78|78,3|3,83|83,3|3,108|108,3|3,142|142,3|3,144|144,3|3,170|170,3|3,182|182,3|3,200|200,3|3,225|225,3|3,235|235,3|3,238|238,3|3,244|244,3|3,250|250,3|3,293|293,3|3,308|308,3|3,312|312,3|3,324|324,3|3,364|364,3|3,376|376,3|3,449|449,3|3,450|450,3|3,451|451,3|3,468|468,3|3,473|473,3|3,479|479,3|3,498|498,3|3,512|512,3|3,525|525,3|3,592|592,3|3,612|612,3|3,668|668,3|3,674|674,3|3,692|692,3|3,696|696,3|3,704|704,3|3,706|706,3|3,719|719,3|4,22|22,4|4,42|42,4|4,86|86,4|4,94|94,4|4,124|124,4|4,167|167,4|4,191|191,4|4,192|192,4|4,199|199,4|4,204|204,4|4,228|228,4|4,233|233,4|4,256|256,4|4,327|327,4|4,356|356,4|4,373|373,4|4,393|393,4|4,420|420,4|4,429|429,4|4,430|430,4|4,464|464,4|4,465|465,4|4,484|484,4|4,488|488,4|4,558|558,4|4,574|574,4|4,576|576,4|4,580|580,4|4,583|583,4|4,625|625,4|4,626|626,4|4,634|634,4|4,638|638,4|4,676|676,4|4,681|681,4|4,690|690,4|4,694|694,4|4,703|703,4|4,720|720,4|5,23|23,5|5,39|39,5|5,77|77,5|5,85|85,5|5,116|116,5|5,141|141,5|5,150|150,5|5,164|164,5|5,193|193,5|5,210|210,5|5,220|220,5|5,252|252,5|5,262|262,5|5,268|268,5|5,271|271,5|5,288|288,5|5,291|291,5|5,337|337,5|5,443|443,5|5,455|455,5|5,469|469,5|5,506|506,5|5,524|524,5|5,533|533,5|5,541|541,5|5,560|560,5|5,579|579,5|5,588|588,5|5,591|591,5|5,593|593,5|5,600|600,5|5,628|628,5|5,655|655,5|5,664|664,5|5,686|686,5|5,689|689,5|5,702|702,5|5,708|708,5|5,715|715,5|6,24|24,6|6,41|41,6|6,58|58,6|6,72|72,6|6,75|75,6|6,143|143,6|6,153|153,6|6,161|161,6|6,223|223,6|6,251|251,6|6,264|264,6|6,272|272,6|6,277|277,6|6,300|300,6|6,305|305,6|6,334|334,6|6,370|370,6|6,378|378,6|6,379|379,6|6,386|386,6|6,410|410,6|6,440|440,6|6,445|445,6|6,452|452,6|6,487|487,6|6,495|495,6|6,530|530,6|6,553|553,6|6,566|566,6|6,568|568,6|6,587|587,6|6,589|589,6|6,631|631,6|6,635|635,6|6,637|637,6|6,652|652,6|6,665|665,6|6,693|693,6|6,695|695,6|7,25|25,7|7,37|37,7|7,76|76,7|7,90|90,7|7,105|105,7|7,157|157,7|7,158|158,7|7,163|163,7|7,173|173,7|7,183|183,7|7,185|185,7|7,201|201,7|7,208|208,7|7,214|214,7|7,227|227,7|7,230|230,7|7,266|266,7|7,348|348,7|7,360|360,7|7,424|424,7|7,425|425,7|7,432|432,7|7,442|442,7|7,444|444,7|7,460|460,7|7,472|472,7|7,485|485,7|7,486|486,7|7,496|496,7|7,505|505,7|7,508|508,7|7,516|516,7|7,534|534,7|7,537|537,7|7,557|557,7|7,565|565,7|7,609|609,7|7,648|648,7|7,672|672,7|8,26|26,8|8,43|43,8|8,70|70,8|8,79|79,8|8,84|84,8|8,122|122,8|8,126|126,8|8,165|165,8|8,179|179,8|8,188|188,8|8,198|198,8|8,203|203,8|8,222|222,8|8,224|224,8|8,255|255,8|8,275|275,8|8,281|281,8|8,296|296,8|8,314|314,8|8,359|359,8|8,381|381,8|8,403|403,8|8,406|406,8|8,422|422,8|8,433|433,8|8,446|446,8|8,453|453,8|8,489|489,8|8,522|522,8|8,582|582,8|8,585|585,8|8,605|605,8|8,613|613,8|8,617|617,8|8,620|620,8|8,646|646,8|8,654|654,8|8,660|660,8|8,701|701,8|9,27|27,9|9,53|53,9|9,61|61,9|9,64|64,9|9,67|67,9|9,121|121,9|9,137|137,9|9,138|138,9|9,139|139,9|9,177|177,9|9,195|195,9|9,249|249,9|9,267|267,9|9,284|284,9|9,297|297,9|9,315|315,9|9,351|351,9|9,362|362,9|9,371|371,9|9,384|384,9|9,387|387,9|9,395|395,9|9,405|405,9|9,434|434,9|9,435|435,9|9,466|466,9|9,471|471,9|9,501|501,9|9,563|563,9|9,595|595,9|9,604|604,9|9,619|619,9|9,621|621,9|9,636|636,9|9,651|651,9|9,666|666,9|9,691|691,9|9,700|700,9|9,713|713,9|10,28|28,10|10,50|50,10|10,62|62,10|10,87|87,10|10,91|91,10|10,98|98,10|10,111|111,10|10,112|112,10|10,117|117,10|10,149|149,10|10,174|174,10|10,217|217,10|10,246|246,10|10,258|258,10|10,263|263,10|10,274|274,10|10,285|285,10|10,289|289,10|10,306|306,10|10,313|313,10|10,323|323,10|10,338|338,10|10,388|388,10|10,427|427,10|10,436|436,10|10,475|475,10|10,477|477,10|10,504|504,10|10,523|523,10|10,531|531,10|10,573|573,10|10,618|618,10|10,624|624,10|10,627|627,10|10,629|629,10|10,644|644,10|10,671|671,10|10,688|688,10|10,707|707,10|11,29|29,11|11,45|45,11|11,49|49,11|11,96|96,11|11,107|107,11|11,119|119,11|11,125|125,11|11,140|140,11|11,145|145,11|11,162|162,11|11,169|169,11|11,180|180,11|11,218|218,11|11,229|229,11|11,259|259,11|11,260|260,11|11,280|280,11|11,287|287,11|11,302|302,11|11,303|303,11|11,307|307,11|11,317|317,11|11,341|341,11|11,391|391,11|11,399|399,11|11,411|411,11|11,416|416,11|11,421|421,11|11,520|520,11|11,526|526,11|11,527|527,11|11,547|547,11|11,548|548,11|11,552|552,11|11,555|555,11|11,606|606,11|11,673|673,11|11,678|678,11|11,683|683,11|12,30|30,12|12,57|57,12|12,71|71,12|12,88|88,12|12,99|99,12|12,113|113,12|12,146|146,12|12,176|176,12|12,184|184,12|12,186|186,12|12,194|194,12|12,202|202,12|12,209|209,12|12,221|221,12|12,257|257,12|12,290|290,12|12,321|321,12|12,329|329,12|12,346|346,12|12,355|355,12|12,361|361,12|12,367|367,12|12,382|382,12|12,398|398,12|12,478|478,12|12,491|491,12|12,493|493,12|12,509|509,12|12,514|514,12|12,554|554,12|12,561|561,12|12,584|584,12|12,602|602,12|12,615|615,12|12,653|653,12|12,685|685,12|12,705|705,12|12,712|712,12|12,718|718,12|13,31|31,13|13,48|48,13|13,65|65,13|13,66|66,13|13,69|69,13|13,74|74,13|13,82|82,13|13,101|101,13|13,110|110,13|13,129|129,13|13,134|134,13|13,196|196,13|13,213|213,13|13,219|219,13|13,237|237,13|13,245|245,13|13,299|299,13|13,340|340,13|13,350|350,13|13,352|352,13|13,365|365,13|13,368|368,13|13,372|372,13|13,375|375,13|13,380|380,13|13,414|414,13|13,417|417,13|13,419|419,13|13,437|437,13|13,439|439,13|13,461|461,13|13,521|521,13|13,535|535,13|13,538|538,13|13,575|575,13|13,633|633,13|13,670|670,13|13,675|675,13|13,679|679,13|14,32|32,14|14,40|40,14|14,44|44,14|14,55|55,14|14,89|89,14|14,115|115,14|14,128|128,14|14,133|133,14|14,178|178,14|14,190|190,14|14,207|207,14|14,226|226,14|14,234|234,14|14,240|240,14|14,243|243,14|14,278|278,14|14,298|298,14|14,325|325,14|14,330|330,14|14,342|342,14|14,343|343,14|14,344|344,14|14,347|347,14|14,357|357,14|14,366|366,14|14,396|396,14|14,400|400,14|14,447|447,14|14,456|456,14|14,482|482,14|14,497|497,14|14,499|499,14|14,540|540,14|14,569|569,14|14,647|647,14|14,680|680,14|14,684|684,14|14,709|709,14|14,711|711,14|15,33|33,15|15,47|47,15|15,60|60,15|15,63|63,15|15,73|73,15|15,95|95,15|15,130|130,15|15,152|152,15|15,197|197,15|15,211|211,15|15,216|216,15|15,253|253,15|15,273|273,15|15,304|304,15|15,318|318,15|15,328|328,15|15,332|332,15|15,358|358,15|15,363|363,15|15,383|383,15|15,462|462,15|15,470|470,15|15,490|490,15|15,492|492,15|15,500|500,15|15,502|502,15|15,529|529,15|15,532|532,15|15,539|539,15|15,549|549,15|15,550|550,15|15,556|556,15|15,562|562,15|15,616|616,15|15,630|630,15|15,649|649,15|15,657|657,15|15,667|667,15|15,677|677,15|16,34|34,16|16,51|51,16|16,93|93,16|16,104|104,16|16,106|106,16|16,114|114,16|16,127|127,16|16,155|155,16|16,215|215,16|16,248|248,16|16,276|276,16|16,283|283,16|16,309|309,16|16,320|320,16|16,339|339,16|16,390|390,16|16,397|397,16|16,407|407,16|16,408|408,16|16,418|418,16|16,426|426,16|16,428|428,16|16,441|441,16|16,467|467,16|16,507|507,16|16,513|513,16|16,519|519,16|16,536|536,16|16,586|586,16|16,596|596,16|16,601|601,16|16,608|608,16|16,641|641,16|16,643|643,16|16,669|669,16|16,682|682,16|16,687|687,16|16,697|697,16|16,710|710,16|17,35|35,17|17,80|80,17|17,120|120,17|17,147|147,17|17,160|160,17|17,168|168,17|17,172|172,17|17,232|232,17|17,239|239,17|17,254|254,17|17,282|282,17|17,286|286,17|17,292|292,17|17,301|301,17|17,345|345,17|17,369|369,17|17,377|377,17|17,385|385,17|17,392|392,17|17,404|404,17|17,412|412,17|17,413|413,17|17,448|448,17|17,474|474,17|17,476|476,17|17,481|481,17|17,510|510,17|17,517|517,17|17,598|598,17|17,611|611,17|17,623|623,17|17,632|632,17|17,639|639,17|17,658|658,17|17,659|659,17|17,663|663,17|17,714|714,17|17,716|716,17|17,717|717,17|18,36|36,18|18,46|46,18|18,100|100,18|18,102|102,18|18,123|123,18|18,131|131,18|18,135|135,18|18,154|154,18|18,181|181,18|18,187|187,18|18,206|206,18|18,231|231,18|18,241|241,18|18,269|269,18|18,270|270,18|18,311|311,18|18,316|316,18|18,319|319,18|18,333|333,18|18,336|336,18|18,389|389,18|18,423|423,18|18,431|431,18|18,457|457,18|18,458|458,18|18,515|515,18|18,528|528,18|18,546|546,18|18,559|559,18|18,567|567,18|18,590|590,18|18,599|599,18|18,610|610,18|18,614|614,18|18,642|642,18|18,645|645,18|18,650|650,18|18,656|656,18|18,661|661,18|];
nodes = [|1,9,0,0,0,0,1,1|2,9,0,0,0,0,1,2|3,9,0,0,0,0,1,3|4,9,0,0,0,0,1,4|5,9,0,0,0,0,1,5|6,9,0,0,0,0,1,6|7,9,0,0,0,0,1,7|8,9,0,0,0,0,1,8|9,9,0,0,0,0,1,9|10,9,0,0,0,0,1,10|11,9,0,0,0,0,1,11|12,9,0,0,0,0,1,12|13,9,0,0,0,0,1,13|14,9,0,0,0,0,1,14|15,9,0,0,0,0,1,15|16,9,0,0,0,0,1,16|17,9,0,0,0,0,1,17|18,9,0,0,0,0,1,18|19,10,0,0,0,0,1,1|20,10,0,0,0,0,1,2|21,10,0,0,0,0,1,3|22,10,0,0,0,0,1,4|23,10,0,0,0,0,1,5|24,10,0,0,0,0,1,6|25,10,0,0,0,0,1,7|26,10,0,0,0,0,1,8|27,10,0,0,0,0,1,9|28,10,0,0,0,0,1,10|29,10,0,0,0,0,1,11|30,10,0,0,0,0,1,12|31,10,0,0,0,0,1,13|32,10,0,0,0,0,1,14|33,10,0,0,0,0,1,15|34,10,0,0,0,0,1,16|35,10,0,0,0,0,1,17|36,10,0,0,0,0,1,18|37,5,0,0,0,0,1,7|38,1,0,0,0,0,1,2|39,5,0,0,0,0,1,5|40,4,0,0,0,0,1,14|41,1,0,0,0,0,1,6|42,5,0,0,0,0,1,4|43,3,0,0,0,0,1,8|44,4,0,0,0,0,1,14|45,2,0,0,0,0,1,11|46,1,0,0,0,0,1,18|47,1,0,0,0,0,1,15|48,1,0,0,0,0,1,13|49,4,0,0,0,0,1,11|50,1,0,0,0,0,1,10|51,3,0,0,0,0,1,16|52,5,0,0,0,0,1,1|53,4,0,0,0,0,1,9|54,4,0,0,0,0,1,1|55,2,0,0,0,0,1,14|56,3,0,0,0,0,1,3|57,4,0,0,0,0,1,12|58,5,0,0,0,0,1,6|59,5,0,0,0,0,1,2|60,2,0,0,0,0,1,15|61,2,0,0,0,0,1,9|62,4,0,0,0,0,1,10|63,1,0,0,0,0,1,15|64,1,0,0,0,0,1,9|65,3,0,0,0,0,1,13|66,3,0,0,0,0,1,13|67,4,0,0,0,0,1,9|68,1,0,0,0,0,1,1|69,3,0,0,0,0,1,13|70,2,0,0,0,0,1,8|71,4,0,0,0,0,1,12|72,5,0,0,0,0,1,6|73,3,0,0,0,0,1,15|74,1,0,0,0,0,1,13|75,2,0,0,0,0,1,6|76,3,0,0,0,0,1,7|77,3,0,0,0,0,1,5|78,2,0,0,0,0,1,3|79,4,0,0,0,0,1,8|80,5,0,0,0,0,1,17|81,4,0,0,0,0,1,1|82,1,0,0,0,0,1,13|83,1,0,0,0,0,1,3|84,3,0,0,0,0,1,8|85,4,0,0,0,0,1,5|86,5,0,0,0,0,1,4|87,4,0,0,0,0,1,10|88,2,0,0,0,0,1,12|89,5,0,0,0,0,1,14|90,4,0,0,0,0,1,7|91,2,0,0,0,0,1,10|92,2,0,0,0,0,1,1|93,4,0,0,0,0,1,16|94,3,0,0,0,0,1,4|95,2,0,0,0,0,1,15|96,4,0,0,0,0,1,11|97,2,0,0,0,0,1,2|98,1,0,0,0,0,1,10|99,2,0,0,0,0,1,12|100,4,0,0,0,0,1,18|101,4,0,0,0,0,1,13|102,3,0,0,0,0,1,18|103,2,0,0,0,0,1,2|104,5,0,0,0,0,1,16|105,3,0,0,0,0,1,7|106,5,0,0,0,0,1,16|107,5,0,0,0,0,1,11|108,3,0,0,0,0,1,3|109,4,0,0,0,0,1,2|110,5,0,0,0,0,1,13|111,4,0,0,0,0,1,10|112,4,0,0,0,0,1,10|113,2,0,0,0,0,1,12|114,3,0,0,0,0,1,16|115,2,0,0,0,0,1,14|116,5,0,0,0,0,1,5|117,5,0,0,0,0,1,10|118,5,0,0,0,0,1,1|119,1,0,0,0,0,1,11|120,1,0,0,0,0,1,17|121,5,0,0,0,0,1,9|122,2,0,0,0,0,1,8|123,1,0,0,0,0,1,18|124,2,0,0,0,0,1,4|125,2,0,0,0,0,1,11|126,2,0,0,0,0,1,8|127,3,0,0,0,0,1,16|128,1,0,0,0,0,1,14|129,1,0,0,0,0,1,13|130,1,0,0,0,0,1,15|131,4,0,0,0,0,1,18|132,1,0,0,0,0,1,2|133,2,0,0,0,0,1,14|134,4,0,0,0,0,1,13|135,5,0,0,0,0,1,18|136,5,0,0,0,0,1,2|137,1,0,0,0,0,1,9|138,4,0,0,0,0,1,9|139,4,0,0,0,0,1,9|140,5,0,0,0,0,1,11|141,2,0,0,0,0,1,5|142,5,0,0,0,0,1,3|143,2,0,0,0,0,1,6|144,2,0,0,0,0,1,3|145,4,0,0,0,0,1,11|146,2,0,0,0,0,1,12|147,2,0,0,0,0,1,17|148,3,0,0,0,0,1,2|149,3,0,0,0,0,1,10|150,2,0,0,0,0,1,5|151,2,0,0,0,0,1,1|152,4,0,0,0,0,1,15|153,5,0,0,0,0,1,6|154,3,0,0,0,0,1,18|155,5,0,0,0,0,1,16|156,2,0,0,0,0,1,2|157,2,0,0,0,0,1,7|158,1,0,0,0,0,1,7|159,3,0,0,0,0,1,1|160,2,0,0,0,0,1,17|161,1,0,0,0,0,1,6|162,3,0,0,0,0,1,11|163,2,0,0,0,0,1,7|164,4,0,0,0,0,1,5|165,2,0,0,0,0,1,8|166,5,0,0,0,0,1,2|167,2,0,0,0,0,1,4|168,5,0,0,0,0,1,17|169,4,0,0,0,0,1,11|170,4,0,0,0,0,1,3|171,5,0,0,0,0,1,1|172,2,0,0,0,0,1,17|173,4,0,0,0,0,1,7|174,4,0,0,0,0,1,10|175,2,0,0,0,0,1,2|176,1,0,0,0,0,1,12|177,1,0,0,0,0,1,9|178,2,0,0,0,0,1,14|179,3,0,0,0,0,1,8|180,1,0,0,0,0,1,11|181,1,0,0,0,0,1,18|182,4,0,0,0,0,1,3|183,1,0,0,0,0,1,7|184,1,0,0,0,0,1,12|185,1,0,0,0,0,1,7|186,4,0,0,0,0,1,12|187,5,0,0,0,0,1,18|188,5,0,0,0,0,1,8|189,3,0,0,0,0,1,1|190,2,0,0,0,0,1,14|191,5,0,0,0,0,1,4|192,3,0,0,0,0,1,4|193,3,0,0,0,0,1,5|194,2,0,0,0,0,1,12|195,4,0,0,0,0,1,9|196,2,0,0,0,0,1,13|197,4,0,0,0,0,1,15|198,4,0,0,0,0,1,8|199,1,0,0,0,0,1,4|200,4,0,0,0,0,1,3|201,4,0,0,0,0,1,7|202,2,0,0,0,0,1,12|203,4,0,0,0,0,1,8|204,4,0,0,0,0,1,4|205,3,0,0,0,0,1,2|206,3,0,0,0,0,1,18|207,3,0,0,0,0,1,14|208,4,0,0,0,0,1,7|209,5,0,0,0,0,1,12|210,4,0,0,0,0,1,5|211,1,0,0,0,0,1,15|212,2,0,0,0,0,1,2|213,3,0,0,0,0,1,13|214,1,0,0,0,0,1,7|215,4,0,0,0,0,1,16|216,1,0,0,0,0,1,15|217,2,0,0,0,0,1,10|218,2,0,0,0,0,1,11|219,5,0,0,0,0,1,13|220,3,0,0,0,0,1,5|221,4,0,0,0,0,1,12|222,4,0,0,0,0,1,8|223,2,0,0,0,0,1,6|224,2,0,0,0,0,1,8|225,4,0,0,0,0,1,3|226,5,0,0,0,0,1,14|227,4,0,0,0,0,1,7|228,5,0,0,0,0,1,4|229,5,0,0,0,0,1,11|230,1,0,0,0,0,1,7|231,5,0,0,0,0,1,18|232,2,0,0,0,0,1,17|233,4,0,0,0,0,1,4|234,5,0,0,0,0,1,14|235,3,0,0,0,0,1,3|236,3,0,0,0,0,1,2|237,4,0,0,0,0,1,13|238,5,0,0,0,0,1,3|239,1,0,0,0,0,1,17|240,2,0,0,0,0,1,14|241,3,0,0,0,0,1,18|242,1,0,0,0,0,1,1|243,3,0,0,0,0,1,14|244,3,0,0,0,0,1,3|245,4,0,0,0,0,1,13|246,1,0,0,0,0,1,10|247,1,0,0,0,0,1,1|248,5,0,0,0,0,1,16|249,2,0,0,0,0,1,9|250,4,0,0,0,0,1,3|251,1,0,0,0,0,1,6|252,2,0,0,0,0,1,5|253,1,0,0,0,0,1,15|254,1,0,0,0,0,1,17|255,3,0,0,0,0,1,8|256,4,0,0,0,0,1,4|257,2,0,0,0,0,1,12|258,2,0,0,0,0,1,10|259,5,0,0,0,0,1,11|260,4,0,0,0,0,1,11|261,1,0,0,0,0,1,2|262,1,0,0,0,0,1,5|263,2,0,0,0,0,1,10|264,4,0,0,0,0,1,6|265,3,0,0,0,0,1,2|266,5,0,0,0,0,1,7|267,1,0,0,0,0,1,9|268,5,0,0,0,0,1,5|269,2,0,0,0,0,1,18|270,3,0,0,0,0,1,18|271,5,0,0,0,0,1,5|272,3,0,0,0,0,1,6|273,5,0,0,0,0,1,15|274,4,0,0,0,0,1,10|275,3,0,0,0,0,1,8|276,2,0,0,0,0,1,16|277,4,0,0,0,0,1,6|278,4,0,0,0,0,1,14|279,4,0,0,0,0,1,1|280,1,0,0,0,0,1,11|281,4,0,0,0,0,1,8|282,1,0,0,0,0,1,17|283,4,0,0,0,0,1,16|284,5,0,0,0,0,1,9|285,2,0,0,0,0,1,10|286,4,0,0,0,0,1,17|287,2,0,0,0,0,1,11|288,2,0,0,0,0,1,5|289,3,0,0,0,0,1,10|290,3,0,0,0,0,1,12|291,4,0,0,0,0,1,5|292,5,0,0,0,0,1,17|293,2,0,0,0,0,1,3|294,3,0,0,0,0,1,2|295,1,0,0,0,0,1,2|296,1,0,0,0,0,1,8|297,5,0,0,0,0,1,9|298,5,0,0,0,0,1,14|299,1,0,0,0,0,1,13|300,5,0,0,0,0,1,6|301,2,0,0,0,0,1,17|302,3,0,0,0,0,1,11|303,1,0,0,0,0,1,11|304,1,0,0,0,0,1,15|305,2,0,0,0,0,1,6|306,5,0,0,0,0,1,10|307,1,0,0,0,0,1,11|308,3,0,0,0,0,1,3|309,4,0,0,0,0,1,16|310,2,0,0,0,0,1,2|311,2,0,0,0,0,1,18|312,1,0,0,0,0,1,3|313,2,0,0,0,0,1,10|314,2,0,0,0,0,1,8|315,5,0,0,0,0,1,9|316,3,0,0,0,0,1,18|317,4,0,0,0,0,1,11|318,5,0,0,0,0,1,15|319,1,0,0,0,0,1,18|320,2,0,0,0,0,1,16|321,5,0,0,0,0,1,12|322,5,0,0,0,0,1,1|323,2,0,0,0,0,1,10|324,5,0,0,0,0,1,3|325,5,0,0,0,0,1,14|326,2,0,0,0,0,1,2|327,3,0,0,0,0,1,4|328,2,0,0,0,0,1,15|329,5,0,0,0,0,1,12|330,2,0,0,0,0,1,14|331,1,0,0,0,0,1,2|332,3,0,0,0,0,1,15|333,1,0,0,0,0,1,18|334,4,0,0,0,0,1,6|335,5,0,0,0,0,1,2|336,1,0,0,0,0,1,18|337,4,0,0,0,0,1,5|338,1,0,0,0,0,1,10|339,3,0,0,0,0,1,16|340,3,0,0,0,0,1,13|341,4,0,0,0,0,1,11|342,1,0,0,0,0,1,14|343,1,0,0,0,0,1,14|344,2,0,0,0,0,1,14|345,1,0,0,0,0,1,17|346,4,0,0,0,0,1,12|347,1,0,0,0,0,1,14|348,4,0,0,0,0,1,7|349,5,0,0,0,0,1,2|350,5,0,0,0,0,1,13|351,4,0,0,0,0,1,9|352,4,0,0,0,0,1,13|353,2,0,0,0,0,1,1|354,5,0,0,0,0,1,2|355,5,0,0,0,0,1,12|356,1,0,0,0,0,1,4|357,3,0,0,0,0,1,14|358,4,0,0,0,0,1,15|359,4,0,0,0,0,1,8|360,3,0,0,0,0,1,7|361,1,0,0,0,0,1,12|362,3,0,0,0,0,1,9|363,4,0,0,0,0,1,15|364,5,0,0,0,0,1,3|365,3,0,0,0,0,1,13|366,5,0,0,0,0,1,14|367,4,0,0,0,0,1,12|368,3,0,0,0,0,1,13|369,5,0,0,0,0,1,17|370,2,0,0,0,0,1,6|371,5,0,0,0,0,1,9|372,4,0,0,0,0,1,13|373,2,0,0,0,0,1,4|374,2,0,0,0,0,1,1|375,5,0,0,0,0,1,13|376,1,0,0,0,0,1,3|377,2,0,0,0,0,1,17|378,4,0,0,0,0,1,6|379,5,0,0,0,0,1,6|380,5,0,0,0,0,1,13|381,5,0,0,0,0,1,8|382,4,0,0,0,0,1,12|383,5,0,0,0,0,1,15|384,2,0,0,0,0,1,9|385,4,0,0,0,0,1,17|386,4,0,0,0,0,1,6|387,4,0,0,0,0,1,9|388,4,0,0,0,0,1,10|389,4,0,0,0,0,1,18|390,1,0,0,0,0,1,16|391,5,0,0,0,0,1,11|392,4,0,0,0,0,1,17|393,1,0,0,0,0,1,4|394,2,0,0,0,0,1,1|395,3,0,0,0,0,1,9|396,3,0,0,0,0,1,14|397,4,0,0,0,0,1,16|398,3,0,0,0,0,1,12|399,3,0,0,0,0,1,11|400,2,0,0,0,0,1,14|401,4,0,0,0,0,1,1|402,4,0,0,0,0,1,2|403,2,0,0,0,0,1,8|404,5,0,0,0,0,1,17|405,1,0,0,0,0,1,9|406,4,0,0,0,0,1,8|407,2,0,0,0,0,1,16|408,4,0,0,0,0,1,16|409,4,0,0,0,0,1,1|410,3,0,0,0,0,1,6|411,1,0,0,0,0,1,11|412,5,0,0,0,0,1,17|413,3,0,0,0,0,1,17|414,1,0,0,0,0,1,13|415,2,0,0,0,0,1,1|416,5,0,0,0,0,1,11|417,3,0,0,0,0,1,13|418,5,0,0,0,0,1,16|419,1,0,0,0,0,1,13|420,2,0,0,0,0,1,4|421,2,0,0,0,0,1,11|422,2,0,0,0,0,1,8|423,5,0,0,0,0,1,18|424,2,0,0,0,0,1,7|425,3,0,0,0,0,1,7|426,5,0,0,0,0,1,16|427,5,0,0,0,0,1,10|428,5,0,0,0,0,1,16|429,4,0,0,0,0,1,4|430,1,0,0,0,0,1,4|431,5,0,0,0,0,1,18|432,3,0,0,0,0,1,7|433,2,0,0,0,0,1,8|434,2,0,0,0,0,1,9|435,1,0,0,0,0,1,9|436,2,0,0,0,0,1,10|437,3,0,0,0,0,1,13|438,2,0,0,0,0,1,1|439,3,0,0,0,0,1,13|440,5,0,0,0,0,1,6|441,3,0,0,0,0,1,16|442,2,0,0,0,0,1,7|443,4,0,0,0,0,1,5|444,5,0,0,0,0,1,7|445,5,0,0,0,0,1,6|446,2,0,0,0,0,1,8|447,3,0,0,0,0,1,14|448,5,0,0,0,0,1,17|449,1,0,0,0,0,1,3|450,1,0,0,0,0,1,3|451,1,0,0,0,0,1,3|452,1,0,0,0,0,1,6|453,1,0,0,0,0,1,8|454,5,0,0,0,0,1,1|455,4,0,0,0,0,1,5|456,1,0,0,0,0,1,14|457,5,0,0,0,0,1,18|458,2,0,0,0,0,1,18|459,3,0,0,0,0,1,1|460,5,0,0,0,0,1,7|461,4,0,0,0,0,1,13|462,1,0,0,0,0,1,15|463,2,0,0,0,0,1,2|464,5,0,0,0,0,1,4|465,1,0,0,0,0,1,4|466,3,0,0,0,0,1,9|467,1,0,0,0,0,1,16|468,5,0,0,0,0,1,3|469,4,0,0,0,0,1,5|470,2,0,0,0,0,1,15|471,1,0,0,0,0,1,9|472,3,0,0,0,0,1,7|473,1,0,0,0,0,1,3|474,3,0,0,0,0,1,17|475,1,0,0,0,0,1,10|476,4,0,0,0,0,1,17|477,3,0,0,0,0,1,10|478,5,0,0,0,0,1,12|479,3,0,0,0,0,1,3|480,1,0,0,0,0,1,2|481,5,0,0,0,0,1,17|482,1,0,0,0,0,1,14|483,1,0,0,0,0,1,1|484,4,0,0,0,0,1,4|485,1,0,0,0,0,1,7|486,5,0,0,0,0,1,7|487,2,0,0,0,0,1,6|488,3,0,0,0,0,1,4|489,1,0,0,0,0,1,8|490,3,0,0,0,0,1,15|491,5,0,0,0,0,1,12|492,3,0,0,0,0,1,15|493,1,0,0,0,0,1,12|494,3,0,0,0,0,1,1|495,3,0,0,0,0,1,6|496,5,0,0,0,0,1,7|497,5,0,0,0,0,1,14|498,5,0,0,0,0,1,3|499,4,0,0,0,0,1,14|500,5,0,0,0,0,1,15|501,3,0,0,0,0,1,9|502,1,0,0,0,0,1,15|503,3,0,0,0,0,1,2|504,3,0,0,0,0,1,10|505,5,0,0,0,0,1,7|506,4,0,0,0,0,1,5|507,2,0,0,0,0,1,16|508,4,0,0,0,0,1,7|509,2,0,0,0,0,1,12|510,5,0,0,0,0,1,17|511,1,0,0,0,0,1,2|512,4,0,0,0,0,1,3|513,2,0,0,0,0,1,16|514,1,0,0,0,0,1,12|515,4,0,0,0,0,1,18|516,1,0,0,0,0,1,7|517,4,0,0,0,0,1,17|518,5,0,0,0,0,1,2|519,4,0,0,0,0,1,16|520,4,0,0,0,0,1,11|521,3,0,0,0,0,1,13|522,3,0,0,0,0,1,8|523,2,0,0,0,0,1,10|524,3,0,0,0,0,1,5|525,2,0,0,0,0,1,3|526,3,0,0,0,0,1,11|527,2,0,0,0,0,1,11|528,4,0,0,0,0,1,18|529,1,0,0,0,0,1,15|530,1,0,0,0,0,1,6|531,3,0,0,0,0,1,10|532,3,0,0,0,0,1,15|533,1,0,0,0,0,1,5|534,1,0,0,0,0,1,7|535,1,0,0,0,0,1,13|536,1,0,0,0,0,1,16|537,4,0,0,0,0,1,7|538,1,0,0,0,0,1,13|539,5,0,0,0,0,1,15|540,4,0,0,0,0,1,14|541,2,0,0,0,0,1,5|542,2,0,0,0,0,1,1|543,5,0,0,0,0,1,2|544,2,0,0,0,0,1,1|545,2,0,0,0,0,1,1|546,1,0,0,0,0,1,18|547,1,0,0,0,0,1,11|548,3,0,0,0,0,1,11|549,2,0,0,0,0,1,15|550,3,0,0,0,0,1,15|551,4,0,0,0,0,1,1|552,3,0,0,0,0,1,11|553,5,0,0,0,0,1,6|554,1,0,0,0,0,1,12|555,1,0,0,0,0,1,11|556,5,0,0,0,0,1,15|557,5,0,0,0,0,1,7|558,5,0,0,0,0,1,4|559,3,0,0,0,0,1,18|560,3,0,0,0,0,1,5|561,5,0,0,0,0,1,12|562,1,0,0,0,0,1,15|563,1,0,0,0,0,1,9|564,4,0,0,0,0,1,1|565,1,0,0,0,0,1,7|566,3,0,0,0,0,1,6|567,2,0,0,0,0,1,18|568,3,0,0,0,0,1,6|569,1,0,0,0,0,1,14|570,1,0,0,0,0,1,2|571,2,0,0,0,0,1,1|572,5,0,0,0,0,1,1|573,2,0,0,0,0,1,10|574,1,0,0,0,0,1,4|575,2,0,0,0,0,1,13|576,5,0,0,0,0,1,4|577,1,0,0,0,0,1,1|578,5,0,0,0,0,1,2|579,2,0,0,0,0,1,5|580,3,0,0,0,0,1,4|581,2,0,0,0,0,1,2|582,3,0,0,0,0,1,8|583,5,0,0,0,0,1,4|584,3,0,0,0,0,1,12|585,4,0,0,0,0,1,8|586,2,0,0,0,0,1,16|587,4,0,0,0,0,1,6|588,1,0,0,0,0,1,5|589,2,0,0,0,0,1,6|590,5,0,0,0,0,1,18|591,4,0,0,0,0,1,5|592,5,0,0,0,0,1,3|593,5,0,0,0,0,1,5|594,3,0,0,0,0,1,1|595,2,0,0,0,0,1,9|596,3,0,0,0,0,1,16|597,3,0,0,0,0,1,2|598,2,0,0,0,0,1,17|599,2,0,0,0,0,1,18|600,2,0,0,0,0,1,5|601,5,0,0,0,0,1,16|602,2,0,0,0,0,1,12|603,2,0,0,0,0,1,1|604,4,0,0,0,0,1,9|605,4,0,0,0,0,1,8|606,3,0,0,0,0,1,11|607,5,0,0,0,0,1,1|608,4,0,0,0,0,1,16|609,1,0,0,0,0,1,7|610,3,0,0,0,0,1,18|611,3,0,0,0,0,1,17|612,1,0,0,0,0,1,3|613,4,0,0,0,0,1,8|614,3,0,0,0,0,1,18|615,3,0,0,0,0,1,12|616,5,0,0,0,0,1,15|617,1,0,0,0,0,1,8|618,3,0,0,0,0,1,10|619,4,0,0,0,0,1,9|620,3,0,0,0,0,1,8|621,5,0,0,0,0,1,9|622,5,0,0,0,0,1,2|623,4,0,0,0,0,1,17|624,5,0,0,0,0,1,10|625,3,0,0,0,0,1,4|626,3,0,0,0,0,1,4|627,2,0,0,0,0,1,10|628,5,0,0,0,0,1,5|629,1,0,0,0,0,1,10|630,1,0,0,0,0,1,15|631,2,0,0,0,0,1,6|632,4,0,0,0,0,1,17|633,4,0,0,0,0,1,13|634,3,0,0,0,0,1,4|635,5,0,0,0,0,1,6|636,5,0,0,0,0,1,9|637,4,0,0,0,0,1,6|638,4,0,0,0,0,1,4|639,4,0,0,0,0,1,17|640,5,0,0,0,0,1,1|641,2,0,0,0,0,1,16|642,2,0,0,0,0,1,18|643,1,0,0,0,0,1,16|644,2,0,0,0,0,1,10|645,2,0,0,0,0,1,18|646,5,0,0,0,0,1,8|647,3,0,0,0,0,1,14|648,1,0,0,0,0,1,7|649,1,0,0,0,0,1,15|650,5,0,0,0,0,1,18|651,4,0,0,0,0,1,9|652,3,0,0,0,0,1,6|653,4,0,0,0,0,1,12|654,2,0,0,0,0,1,8|655,5,0,0,0,0,1,5|656,3,0,0,0,0,1,18|657,2,0,0,0,0,1,15|658,4,0,0,0,0,1,17|659,1,0,0,0,0,1,17|660,4,0,0,0,0,1,8|661,3,0,0,0,0,1,18|662,5,0,0,0,0,1,2|663,2,0,0,0,0,1,17|664,5,0,0,0,0,1,5|665,5,0,0,0,0,1,6|666,1,0,0,0,0,1,9|667,5,0,0,0,0,1,15|668,2,0,0,0,0,1,3|669,2,0,0,0,0,1,16|670,5,0,0,0,0,1,13|671,2,0,0,0,0,1,10|672,5,0,0,0,0,1,7|673,1,0,0,0,0,1,11|674,5,0,0,0,0,1,3|675,2,0,0,0,0,1,13|676,4,0,0,0,0,1,4|677,5,0,0,0,0,1,15|678,2,0,0,0,0,1,11|679,4,0,0,0,0,1,13|680,2,0,0,0,0,1,14|681,3,0,0,0,0,1,4|682,4,0,0,0,0,1,16|683,2,0,0,0,0,1,11|684,4,0,0,0,0,1,14|685,2,0,0,0,0,1,12|686,5,0,0,0,0,1,5|687,1,0,0,0,0,1,16|688,4,0,0,0,0,1,10|689,1,0,0,0,0,1,5|690,2,0,0,0,0,1,4|691,5,0,0,0,0,1,9|692,2,0,0,0,0,1,3|693,3,0,0,0,0,1,6|694,4,0,0,0,0,1,4|695,4,0,0,0,0,1,6|696,3,0,0,0,0,1,3|697,2,0,0,0,0,1,16|698,5,0,0,0,0,1,1|699,1,0,0,0,0,1,2|700,4,0,0,0,0,1,9|701,2,0,0,0,0,1,8|702,2,0,0,0,0,1,5|703,3,0,0,0,0,1,4|704,4,0,0,0,0,1,3|705,4,0,0,0,0,1,12|706,3,0,0,0,0,1,3|707,3,0,0,0,0,1,10|708,4,0,0,0,0,1,5|709,1,0,0,0,0,1,14|710,5,0,0,0,0,1,16|711,3,0,0,0,0,1,14|712,4,0,0,0,0,1,12|713,3,0,0,0,0,1,9|714,3,0,0,0,0,1,17|715,1,0,0,0,0,1,5|716,4,0,0,0,0,1,17|717,5,0,0,0,0,1,17|718,5,0,0,0,0,1,12|719,3,0,0,0,0,1,3|720,2,0,0,0,0,1,4|];
